(set-logic QF_S)
(declare-fun var0 () String)
(assert (str.in.re var0 (re.++ (re.+ (re.union (str.to.re "000") (str.to.re "1"))) (re.++ (re.+ (re.* (str.to.re "22"))) (re.++ (re.union (re.+ (str.to.re "333")) (re.+ (str.to.re "4"))) (re.++ (re.+ (re.union (str.to.re "5") (str.to.re "66"))) (re.++ (re.+ (re.+ (str.to.re "777"))) (re.++ (re.* (re.+ (str.to.re "888"))) (re.++ (re.* (re.* (str.to.re "99"))) (re.++ (re.+ (re.* (str.to.re "aa"))) (re.++ (re.* (re.+ (str.to.re "b"))) (re.+ (re.* (str.to.re "ccc"))))))))))))))
(assert (<= 26 (str.len var0)))
(check-sat)